54503
6,10,12,13,23,25,32,35,37,38,48,53,60,121,134,137,146,147,151,216,236,245,249,254,269,273,281,334,347,362,373,379,382,419,421,426,446,463,469,473,476,480,493,494,539,573,585,592,598,599,603,610,612,657,669,703,708,718,732,736,737,743,751,770,775,786,822,824,830,845,849,855,886,887,914,937,945,967,984,986,987,989,992
